(set-info :smt-lib-version 2.6)
(set-logic QF_LIA)
(set-info :source |
Alberto Griggio

|)
(set-info :category "random")
(set-info :status unsat)
(declare-fun x0 () Int)
(declare-fun x1 () Int)
(declare-fun x2 () Int)
(declare-fun x3 () Int)
(declare-fun x4 () Int)
(declare-fun x5 () Int)
(declare-fun x6 () Int)
(declare-fun x7 () Int)
(declare-fun x8 () Int)
(declare-fun x9 () Int)
(declare-fun x10 () Int)
(declare-fun x11 () Int)
(declare-fun x12 () Int)
(declare-fun x13 () Int)
(declare-fun x14 () Int)
(declare-fun x15 () Int)
(declare-fun x16 () Int)
(declare-fun x17 () Int)
(declare-fun x18 () Int)
(declare-fun x19 () Int)
(declare-fun x20 () Int)
(declare-fun x21 () Int)
(declare-fun x22 () Int)
(declare-fun x23 () Int)
(declare-fun x24 () Int)
(assert (let ((?v_0 (* 0 x5)) (?v_19 (* 0 x9)) (?v_56 (* 1 x22)) (?v_5 (* 1 x18)) (?v_49 (* 1 x14)) (?v_32 (* 1 x0)) (?v_8 (* 0 x19)) (?v_33 (* 0 x13)) (?v_1 (* 1 x23)) (?v_3 (* 0 x3)) (?v_17 (* 0 x8)) (?v_4 (* 0 x7)) (?v_52 (* 1 x16)) (?v_6 (* 0 x2)) (?v_31 (* 1 x13)) (?v_73 (* 1 x4)) (?v_13 (* 1 x9)) (?v_28 (* 1 x24)) (?v_48 (* 1 x8)) (?v_11 (* 0 x21)) (?v_42 (* 1 x10)) (?v_15 (* 1 x1)) (?v_16 (* 0 x24)) (?v_7 (* 0 x12)) (?v_18 (* 1 x15)) (?v_20 (* 1 x20)) (?v_66 (* 1 x17)) (?v_21 (* 0 x11)) (?v_22 (* 0 x6)) (?v_45 (* 1 x7)) (?v_25 (* 1 x19)) (?v_12 (* 0 x23)) (?v_26 (* 0 x16)) (?v_34 (* 0 x4)) (?v_41 (* 0 x17)) (?v_27 (* 0 x14)) (?v_44 (* 1 x6)) (?v_63 (* 1 x2)) (?v_54 (* 0 x0)) (?v_47 (* 0 x22)) (?v_60 (* 1 x21)) (?v_65 (* 1 x3)) (?v_62 (* 1 x5)) (?v_40 (* 0 x10)) (?v_72 (* 1 x12)) (?v_59 (* 0 x15)) (?v_57 (* 0 x20)) (?v_58 (* 0 x18)) (?v_70 (* 1 x11)) (?v_36 (* 0 x1)) (?v_2 (* (- 1) x6)) (?v_67 (* (- 1) x22)) (?v_14 (* (- 1) x20)) (?v_24 (* (- 1) x4)) (?v_10 (* (- 1) x3)) (?v_9 (* (- 1) x9)) (?v_51 (* (- 1) x23)) (?v_30 (* (- 1) x16)) (?v_23 (* (- 1) x18)) (?v_53 (* (- 1) x2)) (?v_46 (* (- 1) x13)) (?v_29 (* (- 1) x12)) (?v_35 (* (- 1) x24)) (?v_61 (* (- 1) x8)) (?v_38 (* (- 1) x7)) (?v_37 (* (- 1) x21)) (?v_50 (* (- 1) x19)) (?v_39 (* (- 1) x10)) (?v_43 (* (- 1) x0)) (?v_71 (* (- 1) x11)) (?v_69 (* (- 1) x14)) (?v_55 (* (- 1) x1)) (?v_64 (* (- 1) x17)) (?v_68 (* (- 1) x15)) (?v_74 (* (- 1) x5))) (and (<= (+ ?v_0 ?v_36 ?v_7 ?v_19 ?v_4 ?v_56 ?v_5 ?v_49 ?v_2 ?v_67 ?v_32 ?v_8 ?v_0 ?v_14 ?v_24 ?v_10 ?v_21 ?v_33 ?v_1 ?v_27 ?v_1 ?v_2 ?v_9 ?v_3 ?v_3) 1) (<= (+ ?v_17 ?v_3 ?v_0 ?v_4 ?v_5 ?v_52 ?v_22 ?v_6 ?v_31 ?v_51 ?v_0 ?v_73 ?v_13 ?v_28 ?v_6 ?v_30 ?v_7 ?v_12 ?v_23 ?v_3 ?v_48 ?v_8 ?v_3 ?v_53 ?v_46) (- 1)) (<= (+ ?v_11 ?v_9 ?v_10 ?v_42 ?v_11 ?v_15 ?v_16 ?v_12 ?v_13 ?v_14 ?v_15 ?v_29 ?v_16 ?v_17 ?v_7 ?v_18 ?v_20 ?v_18 ?v_16 ?v_35 ?v_19 ?v_66 ?v_1 ?v_20 ?v_21) (- 1)) (<= (+ ?v_22 ?v_45 ?v_25 ?v_6 ?v_26 ?v_40 ?v_20 ?v_12 ?v_4 ?v_23 ?v_19 ?v_24 ?v_0 ?v_25 ?v_26 ?v_34 ?v_41 ?v_4 ?v_19 ?v_21 ?v_3 ?v_61 ?v_27 ?v_28 ?v_29) 0) (<= (+ ?v_15 ?v_25 ?v_18 ?v_6 ?v_26 ?v_30 ?v_17 ?v_31 ?v_44 ?v_19 ?v_38 ?v_37 ?v_32 ?v_63 ?v_16 ?v_54 ?v_21 ?v_33 ?v_3 ?v_47 ?v_6 ?v_7 ?v_17 ?v_34 ?v_21) 0) (<= (+ ?v_0 ?v_50 ?v_35 ?v_39 ?v_23 ?v_36 ?v_0 ?v_5 ?v_37 ?v_17 ?v_60 ?v_18 ?v_38 ?v_65 ?v_30 ?v_32 ?v_62 ?v_4 ?v_39 ?v_40 ?v_29 ?v_6 ?v_23 ?v_41 ?v_41) 0) (<= (+ ?v_42 ?v_43 ?v_12 ?v_37 ?v_43 ?v_8 ?v_37 ?v_2 ?v_71 ?v_6 ?v_9 ?v_7 ?v_44 ?v_31 ?v_8 ?v_20 ?v_45 ?v_7 ?v_27 ?v_22 ?v_21 ?v_46 ?v_11 ?v_47 ?v_16) 0) (<= (+ ?v_22 ?v_48 ?v_26 ?v_32 ?v_49 ?v_37 ?v_25 ?v_42 ?v_41 ?v_72 ?v_8 ?v_19 ?v_59 ?v_1 ?v_33 ?v_50 ?v_40 ?v_40 ?v_41 ?v_37 ?v_8 ?v_47 ?v_25 ?v_51 ?v_5) 0) (<= (+ ?v_45 ?v_69 ?v_17 ?v_14 ?v_27 ?v_6 ?v_26 ?v_12 ?v_24 ?v_8 ?v_57 ?v_35 ?v_20 ?v_55 ?v_6 ?v_47 ?v_58 ?v_17 ?v_64 ?v_9 ?v_2 ?v_52 ?v_53 ?v_17 ?v_0) (- 1)) (<= (+ ?v_13 ?v_40 ?v_41 ?v_54 ?v_55 ?v_36 ?v_52 ?v_22 ?v_52 ?v_42 ?v_52 ?v_24 ?v_50 ?v_41 ?v_56 ?v_43 ?v_38 ?v_40 ?v_29 ?v_57 ?v_53 ?v_34 ?v_21 ?v_50 ?v_40) 0) (<= (+ ?v_49 ?v_25 ?v_47 ?v_36 ?v_12 ?v_58 ?v_6 ?v_59 ?v_19 ?v_48 ?v_41 ?v_43 ?v_41 ?v_45 ?v_48 ?v_40 ?v_60 ?v_61 ?v_59 ?v_23 ?v_18 ?v_18 ?v_10 ?v_8 ?v_21) 0) (<= (+ ?v_4 ?v_62 ?v_8 ?v_46 ?v_0 ?v_21 ?v_36 ?v_47 ?v_63 ?v_29 ?v_55 ?v_64 ?v_45 ?v_34 ?v_26 ?v_49 ?v_56 ?v_22 ?v_6 ?v_20 ?v_64 ?v_23 ?v_0 ?v_12 ?v_21) 0) (<= (+ ?v_56 ?v_46 ?v_4 ?v_59 ?v_8 ?v_3 ?v_8 ?v_27 ?v_15 ?v_40 ?v_3 ?v_17 ?v_12 ?v_51 ?v_6 ?v_17 ?v_39 ?v_20 ?v_41 ?v_58 ?v_33 ?v_65 ?v_58 ?v_70 ?v_34) 0) (<= (+ ?v_26 ?v_13 ?v_41 ?v_61 ?v_14 ?v_32 ?v_68 ?v_23 ?v_62 ?v_23 ?v_27 ?v_49 ?v_0 ?v_59 ?v_45 ?v_61 ?v_3 ?v_8 ?v_3 ?v_9 ?v_8 ?v_11 ?v_42 ?v_38 ?v_55) 0) (<= (+ ?v_66 ?v_19 ?v_54 ?v_56 ?v_26 ?v_36 ?v_40 ?v_40 ?v_7 ?v_46 ?v_39 ?v_56 ?v_58 ?v_3 ?v_67 ?v_68 ?v_16 ?v_55 ?v_41 ?v_6 ?v_69 ?v_17 ?v_65 ?v_17 ?v_3) (- 1)) (<= (+ ?v_3 ?v_23 ?v_70 ?v_71 ?v_61 ?v_11 ?v_34 ?v_69 ?v_50 ?v_26 ?v_24 ?v_57 ?v_32 ?v_38 ?v_44 ?v_4 ?v_21 ?v_21 ?v_21 ?v_70 ?v_15 ?v_3 ?v_47 ?v_6 ?v_26) (- 1)) (<= (+ ?v_48 ?v_67 ?v_17 ?v_11 ?v_47 ?v_41 ?v_60 ?v_36 ?v_41 ?v_0 ?v_33 ?v_47 ?v_8 ?v_6 ?v_33 ?v_61 ?v_9 ?v_69 ?v_9 ?v_1 ?v_18 ?v_67 ?v_2 ?v_38 ?v_17) (- 1)) (<= (+ ?v_34 ?v_43 ?v_3 ?v_39 ?v_63 ?v_29 ?v_52 ?v_11 ?v_3 ?v_70 ?v_21 ?v_65 ?v_33 ?v_61 ?v_56 ?v_5 ?v_14 ?v_58 ?v_11 ?v_72 ?v_74 ?v_0 ?v_48 ?v_14 ?v_49) 0) (<= (+ ?v_73 ?v_10 ?v_52 ?v_54 ?v_63 ?v_57 ?v_40 ?v_32 ?v_34 ?v_14 ?v_68 ?v_73 ?v_48 ?v_17 ?v_50 ?v_28 ?v_73 ?v_47 ?v_70 ?v_1 ?v_32 ?v_69 ?v_17 ?v_0 ?v_57) 1) (<= (+ ?v_32 ?v_74 ?v_56 ?v_59 ?v_20 ?v_50 ?v_49 ?v_11 ?v_58 ?v_74 ?v_42 ?v_33 ?v_12 ?v_18 ?v_33 ?v_19 ?v_4 ?v_52 ?v_16 ?v_60 ?v_71 ?v_12 ?v_0 ?v_8 ?v_41) 0) (<= (+ ?v_48 ?v_16 ?v_45 ?v_34 ?v_67 ?v_59 ?v_21 ?v_42 ?v_65 ?v_27 ?v_72 ?v_42 ?v_48 ?v_57 ?v_45 ?v_24 ?v_11 ?v_40 ?v_68 ?v_20 ?v_59 ?v_45 ?v_18 ?v_46 ?v_47) 0) (<= (+ ?v_52 ?v_45 ?v_32 ?v_33 ?v_12 ?v_7 ?v_74 ?v_71 ?v_19 ?v_6 ?v_53 ?v_1 ?v_32 ?v_46 ?v_3 ?v_38 ?v_61 ?v_5 ?v_2 ?v_48 ?v_62 ?v_59 ?v_3 ?v_19 ?v_65) 0) (<= (+ ?v_54 ?v_43 ?v_47 ?v_70 ?v_10 ?v_52 ?v_22 ?v_65 ?v_57 ?v_40 ?v_22 ?v_5 ?v_62 ?v_0 ?v_23 ?v_12 ?v_58 ?v_0 ?v_32 ?v_17 ?v_9 ?v_30 ?v_20 ?v_44 ?v_48) 0) (<= (+ ?v_52 ?v_58 ?v_58 ?v_56 ?v_18 ?v_56 ?v_8 ?v_38 ?v_8 ?v_30 ?v_29 ?v_26 ?v_22 ?v_22 ?v_6 ?v_12 ?v_50 ?v_58 ?v_6 ?v_59 ?v_22 ?v_68 ?v_3 ?v_57 ?v_47) (- 1)) (<= (+ ?v_42 ?v_17 ?v_32 ?v_25 ?v_12 ?v_74 ?v_40 ?v_44 ?v_66 ?v_7 ?v_7 ?v_29 ?v_12 ?v_33 ?v_36 ?v_55 ?v_63 ?v_27 ?v_8 ?v_60 ?v_66 ?v_62 ?v_28 ?v_17 ?v_66) 0) (<= (+ ?v_17 ?v_9 ?v_39 ?v_19 ?v_34 ?v_34 ?v_12 ?v_13 ?v_21 ?v_35 ?v_0 ?v_58 ?v_58 ?v_60 ?v_5 ?v_60 ?v_5 ?v_13 ?v_62 ?v_31 ?v_0 ?v_7 ?v_56 ?v_4 ?v_41) 0) (<= (+ ?v_58 ?v_5 ?v_6 ?v_33 ?v_26 ?v_58 ?v_34 ?v_13 ?v_20 ?v_26 ?v_44 ?v_42 ?v_27 ?v_17 ?v_59 ?v_59 ?v_0 ?v_36 ?v_22 ?v_17 ?v_71 ?v_65 ?v_67 ?v_54 ?v_12) 1) (<= (+ ?v_52 ?v_25 ?v_23 ?v_34 ?v_11 ?v_7 ?v_67 ?v_34 ?v_47 ?v_50 ?v_18 ?v_46 ?v_51 ?v_41 ?v_59 ?v_12 ?v_35 ?v_31 ?v_12 ?v_57 ?v_58 ?v_3 ?v_16 ?v_27 ?v_9) 1) (<= (+ ?v_20 ?v_41 ?v_22 ?v_39 ?v_61 ?v_23 ?v_4 ?v_1 ?v_8 ?v_58 ?v_19 ?v_31 ?v_7 ?v_53 ?v_34 ?v_19 ?v_19 ?v_28 ?v_16 ?v_65 ?v_0 ?v_40 ?v_3 ?v_40 ?v_3) (- 1)) (<= (+ ?v_34 ?v_66 ?v_22 ?v_3 ?v_34 ?v_34 ?v_51 ?v_41 ?v_16 ?v_16 ?v_23 ?v_19 ?v_47 ?v_63 ?v_5 ?v_34 ?v_54 ?v_59 ?v_62 ?v_16 ?v_62 ?v_33 ?v_8 ?v_65 ?v_66) 0) (<= (+ ?v_19 ?v_22 ?v_49 ?v_68 ?v_0 ?v_26 ?v_64 ?v_21 ?v_65 ?v_12 ?v_73 ?v_20 ?v_27 ?v_40 ?v_72 ?v_39 ?v_64 ?v_13 ?v_21 ?v_57 ?v_59 ?v_11 ?v_45 ?v_54 ?v_6) 0) (<= (+ ?v_21 ?v_74 ?v_65 ?v_37 ?v_10 ?v_74 ?v_29 ?v_7 ?v_67 ?v_12 ?v_17 ?v_60 ?v_57 ?v_33 ?v_60 ?v_53 ?v_36 ?v_21 ?v_66 ?v_74 ?v_49 ?v_33 ?v_19 ?v_41 ?v_4) 0) (<= (+ ?v_70 ?v_34 ?v_0 ?v_68 ?v_15 ?v_55 ?v_67 ?v_41 ?v_71 ?v_74 ?v_48 ?v_17 ?v_23 ?v_72 ?v_19 ?v_54 ?v_54 ?v_17 ?v_69 ?v_52 ?v_52 ?v_26 ?v_22 ?v_36 ?v_45) (- 1)) (<= (+ ?v_5 ?v_20 ?v_58 ?v_26 ?v_59 ?v_62 ?v_42 ?v_69 ?v_22 ?v_30 ?v_18 ?v_2 ?v_17 ?v_0 ?v_61 ?v_12 ?v_33 ?v_11 ?v_17 ?v_49 ?v_69 ?v_0 ?v_32 ?v_27 ?v_59) 0) (<= (+ ?v_15 ?v_19 ?v_51 ?v_43 ?v_70 ?v_16 ?v_17 ?v_7 ?v_54 ?v_27 ?v_70 ?v_54 ?v_54 ?v_31 ?v_39 ?v_17 ?v_39 ?v_0 ?v_47 ?v_47 ?v_3 ?v_45 ?v_36 ?v_35 ?v_30) 1) (<= (+ ?v_21 ?v_25 ?v_13 ?v_54 ?v_7 ?v_16 ?v_47 ?v_3 ?v_11 ?v_21 ?v_12 ?v_26 ?v_34 ?v_7 ?v_40 ?v_0 ?v_3 ?v_63 ?v_66 ?v_72 ?v_58 ?v_54 ?v_72 ?v_65 ?v_11) (- 1)) (<= (+ ?v_31 ?v_67 ?v_57 ?v_73 ?v_30 ?v_41 ?v_3 ?v_42 ?v_71 ?v_12 ?v_14 ?v_60 ?v_7 ?v_40 ?v_62 ?v_20 ?v_11 ?v_40 ?v_61 ?v_20 ?v_34 ?v_50 ?v_18 ?v_31 ?v_16) 0) (<= (+ ?v_44 ?v_27 ?v_12 ?v_39 ?v_11 ?v_12 ?v_19 ?v_74 ?v_31 ?v_36 ?v_19 ?v_25 ?v_27 ?v_4 ?v_54 ?v_9 ?v_39 ?v_26 ?v_29 ?v_45 ?v_47 ?v_6 ?v_21 ?v_38 ?v_71) 0) (<= (+ ?v_32 ?v_56 ?v_73 ?v_16 ?v_3 ?v_55 ?v_74 ?v_58 ?v_16 ?v_47 ?v_40 ?v_47 ?v_14 ?v_33 ?v_2 ?v_19 ?v_59 ?v_30 ?v_11 ?v_0 ?v_0 ?v_44 ?v_65 ?v_38 ?v_36) 0) (<= (+ ?v_17 ?v_9 ?v_11 ?v_3 ?v_40 ?v_52 ?v_23 ?v_16 ?v_62 ?v_8 ?v_59 ?v_6 ?v_37 ?v_37 ?v_15 ?v_8 ?v_54 ?v_33 ?v_43 ?v_8 ?v_73 ?v_20 ?v_17 ?v_57 ?v_4) 0) (<= (+ ?v_40 ?v_21 ?v_72 ?v_52 ?v_45 ?v_5 ?v_71 ?v_38 ?v_9 ?v_34 ?v_40 ?v_11 ?v_40 ?v_9 ?v_66 ?v_16 ?v_4 ?v_41 ?v_35 ?v_0 ?v_48 ?v_34 ?v_7 ?v_62 ?v_9) 1) (<= (+ ?v_36 ?v_47 ?v_22 ?v_49 ?v_60 ?v_27 ?v_34 ?v_0 ?v_61 ?v_47 ?v_27 ?v_54 ?v_40 ?v_45 ?v_11 ?v_31 ?v_63 ?v_34 ?v_36 ?v_7 ?v_30 ?v_8 ?v_31 ?v_65 ?v_68) 0) (<= (+ ?v_47 ?v_48 ?v_36 ?v_29 ?v_57 ?v_12 ?v_56 ?v_51 ?v_49 ?v_58 ?v_16 ?v_69 ?v_25 ?v_37 ?v_8 ?v_34 ?v_62 ?v_74 ?v_27 ?v_74 ?v_68 ?v_43 ?v_70 ?v_10 ?v_18) 0) (<= (+ ?v_40 ?v_34 ?v_11 ?v_3 ?v_21 ?v_41 ?v_22 ?v_45 ?v_34 ?v_50 ?v_0 ?v_4 ?v_16 ?v_56 ?v_50 ?v_41 ?v_73 ?v_15 ?v_10 ?v_61 ?v_41 ?v_27 ?v_22 ?v_34 ?v_41) 1) (<= (+ ?v_31 ?v_7 ?v_39 ?v_15 ?v_25 ?v_6 ?v_3 ?v_47 ?v_7 ?v_39 ?v_19 ?v_64 ?v_57 ?v_50 ?v_70 ?v_3 ?v_3 ?v_29 ?v_15 ?v_18 ?v_12 ?v_73 ?v_9 ?v_58 ?v_27) 1) (<= (+ ?v_49 ?v_41 ?v_6 ?v_50 ?v_36 ?v_49 ?v_47 ?v_40 ?v_17 ?v_45 ?v_71 ?v_54 ?v_47 ?v_41 ?v_57 ?v_46 ?v_11 ?v_48 ?v_56 ?v_16 ?v_41 ?v_40 ?v_7 ?v_54 ?v_25) (- 1)) (<= (+ ?v_32 ?v_24 ?v_1 ?v_16 ?v_25 ?v_24 ?v_41 ?v_21 ?v_21 ?v_7 ?v_9 ?v_47 ?v_59 ?v_11 ?v_51 ?v_34 ?v_14 ?v_52 ?v_19 ?v_51 ?v_50 ?v_37 ?v_27 ?v_14 ?v_23) 1) (<= (+ ?v_60 ?v_24 ?v_5 ?v_19 ?v_20 ?v_74 ?v_52 ?v_0 ?v_11 ?v_9 ?v_16 ?v_39 ?v_73 ?v_68 ?v_71 ?v_47 ?v_16 ?v_13 ?v_43 ?v_23 ?v_8 ?v_32 ?v_6 ?v_70 ?v_12) (- 1)) (<= (+ ?v_1 ?v_36 ?v_72 ?v_62 ?v_55 ?v_47 ?v_56 ?v_37 ?v_0 ?v_66 ?v_59 ?v_27 ?v_51 ?v_66 ?v_55 ?v_22 ?v_30 ?v_40 ?v_19 ?v_20 ?v_50 ?v_38 ?v_11 ?v_42 ?v_25) 0) (<= (+ ?v_19 ?v_11 ?v_69 ?v_59 ?v_19 ?v_55 ?v_72 ?v_17 ?v_32 ?v_39 ?v_33 ?v_38 ?v_69 ?v_30 ?v_19 ?v_6 ?v_68 ?v_11 ?v_18 ?v_67 ?v_54 ?v_68 ?v_34 ?v_10 ?v_22) (- 1)))))
(check-sat)
(exit)
